     DEFAULT
0                                                                                                            SUBCASE 1

                   S T R E S S E S   I N   L A Y E R E D   C O M P O S I T E   E L E M E N T S   ( Q U A D 4 )
   ELEMENT  PLY  STRESSES IN FIBER AND MATRIX DIRECTIONS    INTER-LAMINAR  STRESSES  PRINCIPAL STRESSES (ZERO SHEAR)      MAX
     ID      ID    NORMAL-1     NORMAL-2     SHEAR-12     SHEAR XZ-MAT  SHEAR YZ-MAT  ANGLE    MAJOR        MINOR        SHEAR
0        1    1  -6.50833E+05  1.23695E+03 -2.98594E+04   -1.21018E+05 -4.90450E+03  -87.38  2.60140E+03 -6.52198E+05  3.27399E+05
0        1    2  -1.62592E+05 -5.39396E+04  1.99109E+04   -1.45872E+05 -5.91173E+03   79.94 -5.04058E+04 -1.66126E+05  5.78602E+04
0        1    3   5.39396E+04  1.62592E+05  1.99109E+04   -1.21018E+05 -4.90450E+03   79.94  1.66126E+05  5.04058E+04  5.78602E+04
0        1    4   6.50833E+05 -1.23695E+03  2.98594E+04   -1.88631E-11 -7.64462E-13    2.62  6.52198E+05 -2.60140E+03  3.27399E+05
0        2    1  -7.43391E+05  2.03598E+04 -1.25827E+04   -1.46100E+05 -7.92272E+03  -89.06  2.05670E+04 -7.43598E+05  3.82082E+05
0        2    2  -1.43398E+05 -9.76121E+04  2.33211E+04   -1.76104E+05 -9.54980E+03   67.23 -8.78254E+04 -1.53185E+05  3.26797E+04
0        2    3   9.76121E+04  1.43398E+05  2.33211E+04   -1.46100E+05 -7.92272E+03   67.23  1.53185E+05  8.78254E+04  3.26797E+04
0        2    4   7.43391E+05 -2.03598E+04  1.25827E+04    0.0          0.0            0.94  7.43598E+05 -2.05670E+04  3.82082E+05
0        3    1  -5.06431E+05  2.45701E+04  1.40232E+03   -1.36444E+05 -3.16785E+03   89.85  2.45738E+04 -5.06434E+05  2.65504E+05
0        3    2  -7.77587E+04 -8.28615E+04  1.62141E+04   -1.64465E+05 -3.81843E+03   40.53 -6.38965E+04 -9.67237E+04  1.64136E+04
0        3    3   8.28615E+04  7.77587E+04  1.62141E+04   -1.36444E+05 -3.16785E+03   40.53  9.67237E+04  6.38965E+04  1.64136E+04
0        3    4   5.06431E+05 -2.45701E+04 -1.40232E+03    0.0          0.0           -0.15  5.06434E+05 -2.45738E+04  2.65504E+05
0        4    1  -3.10286E+05 -5.62288E+02  1.25882E+04   -1.37776E+05  5.02971E+03   87.68 -5.15004E+01 -3.10796E+05  1.55372E+05
0        4    2  -2.89048E+04 -7.47111E+04  9.45740E+03   -1.66070E+05  6.06266E+03   11.22 -2.70290E+04 -7.65869E+04  2.47789E+04
0        4    3   7.47111E+04  2.89048E+04  9.45740E+03   -1.37776E+05  5.02971E+03   11.22  7.65869E+04  2.70290E+04  2.47789E+04
0        4    4   3.10286E+05  5.62288E+02 -1.25882E+04    0.0          0.0           -2.32  3.10796E+05  5.15004E+01  1.55372E+05
0        5    1  -6.93362E+04 -4.69476E+03  8.94442E+03   -1.23798E+05  3.21220E+04   82.27 -3.47995E+03 -7.05510E+04  3.35355E+04
0        5    2   3.93504E+03 -2.86120E+04  1.97382E+03   -1.49222E+05  3.87189E+04    3.46  4.05431E+03 -2.87313E+04  1.63928E+04
0        5    3   2.86120E+04 -3.93504E+03  1.97382E+03   -1.23798E+05  3.21220E+04    3.46  2.87313E+04 -4.05431E+03  1.63928E+04
0        5    4   6.93362E+04  4.69476E+03 -8.94442E+03   -1.92963E-11  5.00685E-12   -7.73  7.05510E+04  3.47995E+03  3.35355E+04
0        6    1  -7.92407E+05 -2.47848E+04 -2.14433E+04   -1.23537E+05 -5.52712E+03  -88.40 -2.41863E+04 -7.93006E+05  3.84410E+05
0        6    2  -1.75213E+05 -9.71846E+04  2.34393E+04   -1.48907E+05 -6.66222E+03   74.50 -9.06849E+04 -1.81712E+05  4.55138E+04
0        6    3   9.71846E+04  1.75213E+05  2.34393E+04   -1.23537E+05 -5.52712E+03   74.50  1.81712E+05  9.06849E+04  4.55138E+04
0        6    4   7.92407E+05  2.47848E+04  2.14433E+04    0.0          0.0            1.60  7.93006E+05  2.41863E+04  3.84410E+05
0        7    1  -6.29404E+05  1.21014E+04 -2.24901E+04   -1.20611E+05 -9.91017E+03  -87.99  1.28889E+04 -6.30192E+05  3.21540E+05
1   TRY WITH BOTH PSHELL AND PCOMP...                                          JULY  12, 2010  MSC.NASTRAN  2/15/06   PAGE    17
