
                         S T R E S S E S   I N   Q U A D R I L A T E R A L   E L E M E N T S   ( Q U A D 4 )        OPTION = BILIN

    ELEMENT              FIBER            STRESSES IN ELEMENT COORD SYSTEM         PRINCIPAL STRESSES (ZERO SHEAR)
      ID      GRID-ID   DISTANCE        NORMAL-X      NORMAL-Y      SHEAR-XY      ANGLE        MAJOR         MINOR       VON MISES
0         1    CEN/4  -1.500000E-02  -3.589731E+02  8.824887E+03 -1.266557E+02   -89.2100   8.826634E+03 -3.607195E+02  9.012409E+03
                       1.500000E-02   3.812138E+03  1.269419E+04  3.137626E+03    72.3792   1.369076E+04  2.815572E+03  1.252266E+04

                   1  -1.500000E-02   1.888688E+02  1.002915E+04 -1.455404E+02   -89.1528   1.003130E+04  1.867167E+02  9.939258E+03
                       1.500000E-02   5.003825E+03  1.218429E+04  3.109257E+03    69.5532   1.334350E+04  3.844610E+03  1.189662E+04

                   2  -1.500000E-02   1.887273E+02  7.621415E+03 -1.357587E+02   -88.9539   7.623894E+03  1.862485E+02  7.532497E+03
                       1.500000E-02   5.003621E+03  1.320562E+04  3.105114E+03    71.4342   1.424854E+04  3.960698E+03  1.273868E+04

                  83  -1.500000E-02  -9.060551E+02  7.625035E+03 -1.078084E+02   -89.2761   7.626397E+03 -9.074172E+02  8.118230E+03
                       1.500000E-02   2.622104E+03  1.320223E+04  3.165961E+03    74.5503   1.407723E+04  1.747097E+03  1.329009E+04

                  82  -1.500000E-02  -9.061173E+02  1.002410E+04 -1.175497E+02   -89.3839   1.002536E+04 -9.073814E+02  1.050848E+04
                       1.500000E-02   2.621865E+03  1.218457E+04  3.170100E+03    73.2275   1.314002E+04  1.666418E+03  1.239113E+04

0         2    CEN/4  -1.500000E-02   7.963032E+02  8.275285E+03  9.578933E+02    82.8161   8.396021E+03  6.755672E+02  8.079449E+03
                       1.500000E-02   3.640838E+03  1.287761E+04  2.719138E+03    74.7560   1.361862E+04  2.899821E+03  1.242515E+04

                   2  -1.500000E-02   2.002450E+03  8.708598E+03  9.152429E+02    82.3663   8.831265E+03  1.879783E+03  8.057540E+03
                       1.500000E-02   4.873230E+03  1.316057E+04  2.676404E+03    73.5708   1.394976E+04  4.084036E+03  1.242191E+04

                   3  -1.500000E-02   2.002430E+03  7.844675E+03  9.198115E+02    81.2608   7.986069E+03  1.861036E+03  7.237292E+03
                       1.500000E-02   4.873218E+03  1.259741E+04  2.679382E+03    72.6242   1.343583E+04  4.034795E+03  1.194112E+04

                  84  -1.500000E-02  -4.083507E+02  7.843581E+03  1.000485E+03    83.1849   7.963150E+03 -5.279196E+02  8.239804E+03
                       1.500000E-02   2.409972E+03  1.259569E+04  2.761815E+03    75.7647   1.329635E+04  1.709315E+03  1.252945E+04

                  83  -1.500000E-02  -4.083225E+02  8.704291E+03  9.959334E+02    83.8350   8.811868E+03 -5.158998E+02  9.080815E+03
                       1.500000E-02   2.409992E+03  1.315676E+04  2.758848E+03    76.4114   1.382362E+04  1.743137E+03  1.303973E+04

1   MSC.NASTRAN JOB CREATED ON 15-JUN-10 AT 14:38:57                         AUGUST  10, 2010  MSC.NASTRAN  2/15/06   PAGE   545
