1
 
 
 
 
                     THIS PROGRAM IS CONFIDENTIAL AND A TRADE SECRET OF MSC.SOFTWARE CORPORATION.  THE RECEIPT OR    
                  POSSESSION OF THIS PROGRAM DOES NOT CONVEY ANY RIGHTS TO REPRODUCE OR DISCLOSE ITS CONTENTS, OR TO 
                 MANUFACTURE, USE, OR SELL ANYTHING HEREIN, IN WHOLE OR IN PART, WITHOUT THE SPECIFIC WRITTEN CONSENT
                                                    OF MSC.SOFTWARE CORPORATION.                                     
 
 
                                              * * * * * * * * * * * * * * * * * * * *
                                              * * * * * * * * * * * * * * * * * * * *
                                              * *                                 * *
                                              * *           MSC.SOFTWARE          * *
                                              * *               CORP              * *
                                              * *                                 * *
                                              * *      M S C . N a s t r a n      * *
                                              * *                                 * *
                                              * *                                 * *
                                              * *                                 * *
                                              * *        Version 2005.5.0         * *
                                              * *             2005R3              * *
                                              * *                                 * *
                                              * *                                 * *
                                              * *          FEB 15, 2006           * *
                                              * *                                 * *
                                              * *       x86-64 Based System       * *
                                              * *MODEL AMD AuthenticAMD /1000.000 * *
                                              * *    Linux 2.6.18-194.3.1.el5     * *
                                              * *       Compiled for x8664        * *
                                              * *                                 * *
                                              * * * * * * * * * * * * * * * * * * * *
                                              * * * * * * * * * * * * * * * * * * * *
1                                                                              JULY  15, 2010  MSC.NASTRAN  2/15/06   PAGE     1
                                                                                                                                    
0        N A S T R A N    F I L E    A N D    S Y S T E M    P A R A M E T E R    E C H O                                           
0                                                                                                                                   
                                                                                                                                    
                                                                                                                                    
     NASTRAN OP2NEW=0 $ MSC.NASTRAN .LCL FILE                                        
     NASTRAN BUFFSIZE=8193 $(/MSC/NASTRAN/CONF/NAST20055RC[3])                       
     $ NASTRAN INPUT FILE CREATED BY THE MSC MSC.NASTRAN INPUT FILE                  
     $ TRANSLATOR ( MSC.PATRAN 13.1.116 ) ON NOVEMBER  30, 2009 AT 13:30:13.         
     $ DIRECT TEXT INPUT FOR NASTRAN SYSTEM CELL SECTION                             
     $ LINEAR STATIC ANALYSIS, DATABASE                                              
1                                                                              JULY  15, 2010  MSC.NASTRAN  2/15/06   PAGE     2
                                                                                                                                    
0        N A S T R A N    E X E C U T I V E    C O N T R O L    E C H O                                                             
0                                                                                                                                   
                                                                                                                                    
                                                                                                                                    
     SOL 101                                                                                 
     CEND                                                                                    
1                                                                              JULY  15, 2010  MSC.NASTRAN  2/15/06   PAGE     3
                                                                                                                                    
0                                                                                                                                   
0                                        C A S E    C O N T R O L    E C H O                                                        
                 COMMAND                                                                                                            
                 COUNT                                                                                                              
                  1      ECHO = NONE                                                                             
                  2      SUBCASE 1                                                                               
                  3      $ SUBCASE NAME : UNTITLED.SC4                                                           
                  4         SUBTITLE=UNTITLED.SC4                                                                
                  5         SPC = 2                                                                              
                  6         LOAD = 13                                                                            
                  7         DISPLACEMENT(SORT1,REAL)=ALL                                                         
                  8         SPCFORCES(SORT1,REAL)=ALL                                                            
                  9         OLOAD(SORT1,REAL)=ALL                                                                
                 10         FORCE(SORT1,REAL,BILIN)=ALL                                                          
                 11         STRESS(SORT1,REAL,VONMISES,BILIN)=ALL                                                
                 12      BEGIN BULK                                                                              
0                             INPUT BULK DATA ENTRY COUNT =      44
0                       TOTAL COUNT=        26
 *** USER WARNING MESSAGE 4124 (IFS3P)
     THE SPCADD OR MPCADD UNION CONSISTS OF A SINGLE SET.


                                        M O D E L   S U M M A R Y

                                   NUMBER OF GRID     POINTS   =        4
 
                                   NUMBER OF CROD     ELEMENTS =        3
 
1                                                                              JULY  15, 2010  MSC.NASTRAN  2/15/06   PAGE     4
                                                                                                                                    
0                                                                                                                                   
                           O U T P U T   F R O M   G R I D   P O I N T   W E I G H T   G E N E R A T O R
0                                                     REFERENCE POINT =        0
                                                                M O
                      *  1.207020E+05  0.000000E+00  0.000000E+00  0.000000E+00  0.000000E+00 -6.035100E+06 *
                      *  0.000000E+00  1.207020E+05  0.000000E+00  0.000000E+00  0.000000E+00  5.892910E+06 *
                      *  0.000000E+00  0.000000E+00  1.207020E+05  6.035100E+06 -5.892910E+06  0.000000E+00 *
                      *  0.000000E+00  0.000000E+00  6.035100E+06  6.035100E+08 -5.892911E+08  0.000000E+00 *
                      *  0.000000E+00  0.000000E+00 -5.892910E+06 -5.892911E+08  5.970075E+08  0.000000E+00 *
                      * -6.035100E+06  5.892910E+06  0.000000E+00  0.000000E+00  0.000000E+00  1.200517E+09 *
                                                                 S
                                           *  1.000000E+00  0.000000E+00  0.000000E+00 *
                                           *  0.000000E+00  1.000000E+00  0.000000E+00 *
                                           *  0.000000E+00  0.000000E+00  1.000000E+00 *
                               DIRECTION
                          MASS AXIS SYSTEM (S)     MASS              X-C.G.        Y-C.G.        Z-C.G.
                                  X            1.207020E+05      0.000000E+00  5.000000E+01  0.000000E+00
                                  Y            1.207020E+05      4.882198E+01  0.000000E+00  0.000000E+00
                                  Z            1.207020E+05      4.882198E+01  5.000000E+01  0.000000E+00
                                                                I(S)
                                           *  3.017550E+08  2.946455E+08  0.000000E+00 *
                                           *  2.946455E+08  3.093039E+08  0.000000E+00 *
                                           *  0.000000E+00  0.000000E+00  6.110589E+08 *
                                                                I(Q)
                                           *  6.001991E+08                             *
                                           *                1.085973E+07               *
                                           *                              6.110589E+08 *
                                                                 Q
                                           *  7.025635E-01  7.116210E-01  0.000000E+00 *
                                           * -7.116210E-01  7.025635E-01  0.000000E+00 *
                                           *  0.000000E+00  0.000000E+00  1.000000E+00 *

1                                                                              JULY  15, 2010  MSC.NASTRAN  2/15/06   PAGE     5
                                                                                                                                    
0                                                                                                                                   
1                                                                              JULY  15, 2010  MSC.NASTRAN  2/15/06   PAGE     6
                                                                                                                                    
0                                                                                                                                   
0 RESULTANTS ABOUT ORIGIN OF SUPERELEMENT BASIC COORDINATE SYSTEM IN SUPERELEMENT BASIC SYSTEM COORDINATES.

0                                                  OLOAD    RESULTANT       
  SUBCASE/    LOAD
  DAREA ID    TYPE       T1            T2            T3            R1            R2            R3
0        1     FX    1.000000E+06     ----          ----          ----       0.000000E+00  0.000000E+00                             
               FY       ----       2.000000E+06     ----       0.000000E+00     ----       0.000000E+00                             
               FZ       ----          ----       0.000000E+00  0.000000E+00  0.000000E+00     ----                                  
               MX       ----          ----          ----       0.000000E+00     ----          ----                                  
               MY       ----          ----          ----          ----       0.000000E+00     ----                                  
               MZ       ----          ----          ----          ----          ----       0.000000E+00                             
             TOTALS  1.000000E+06  2.000000E+06  0.000000E+00  0.000000E+00  0.000000E+00  0.000000E+00
 *** SYSTEM INFORMATION MESSAGE 6916 (DFMSYN)
     DECOMP ORDERING METHOD CHOSEN: BEND, ORDERING METHOD USED: BEND
  
 *** SYSTEM INFORMATION MESSAGE 4159 (DFMSA)
     THE DECOMPOSITION OF KLL      YIELDS A MAXIMUM MATRIX-TO-FACTOR-DIAGONAL RATIO OF    1.506945E+01
1                                                                              JULY  15, 2010  MSC.NASTRAN  2/15/06   PAGE     7
                                                                                                                                    
0                                                                                                            SUBCASE 1              
 *** USER INFORMATION MESSAGE 5293 (SSG3A)
    FOR DATA BLOCK KLL     
    LOAD SEQ. NO.             EPSILON              EXTERNAL WORK      EPSILONS LARGER THAN 0.001 ARE FLAGGED WITH ASTERISKS
                1          1.7226107E-15          1.0937484E+04
1                                                                              JULY  15, 2010  MSC.NASTRAN  2/15/06   PAGE     8
                                                                                                                                    
0                                                                                                                                   
0 RESULTANTS ABOUT ORIGIN OF SUPERELEMENT BASIC COORDINATE SYSTEM IN SUPERELEMENT BASIC SYSTEM COORDINATES.

0                                                  SPCFORCE RESULTANT       
  SUBCASE/    LOAD
  DAREA ID    TYPE       T1            T2            T3            R1            R2            R3
0        1     FX   -1.000000E+06     ----          ----          ----       0.000000E+00  1.000000E+08                             
               FY       ----      -2.000000E+06     ----       0.000000E+00     ----      -1.000000E+08                             
               FZ       ----          ----       0.000000E+00  0.000000E+00  0.000000E+00     ----                                  
               MX       ----          ----          ----       0.000000E+00     ----          ----                                  
               MY       ----          ----          ----          ----       0.000000E+00     ----                                  
               MZ       ----          ----          ----          ----          ----       0.000000E+00                             
             TOTALS -1.000000E+06 -2.000000E+06  0.000000E+00  0.000000E+00  0.000000E+00  0.000000E+00
1                                                                              JULY  15, 2010  MSC.NASTRAN  2/15/06   PAGE     9
                                                                                                                                    
0                                                                                                                                   
0                                                  MAXIMUM  SPCFORCES       
  SUBCASE/
  DAREA ID        T1             T2             T3             R1             R2             R3
0        1   1.1813712E+06  1.1813712E+06  0.0000000E+00  0.0000000E+00  0.0000000E+00  0.0000000E+00
1                                                                              JULY  15, 2010  MSC.NASTRAN  2/15/06   PAGE    10
                                                                                                                                    
0                                                                                                                                   
0                                                  MAXIMUM  DISPLACEMENTS   
  SUBCASE/
  DAREA ID        T1             T2             T3             R1             R2             R3
0        1   1.8585829E-02  2.0230399E-02  0.0000000E+00  0.0000000E+00  0.0000000E+00  0.0000000E+00
1                                                                              JULY  15, 2010  MSC.NASTRAN  2/15/06   PAGE    11
                                                                                                                                    
0                                                                                                                                   
0                                                  MAXIMUM  APPLIED LOADS   
  SUBCASE/
  DAREA ID        T1             T2             T3             R1             R2             R3
0        1   1.0000000E+06  2.0000000E+06  0.0000000E+00  0.0000000E+00  0.0000000E+00  0.0000000E+00
1                                                                              JULY  15, 2010  MSC.NASTRAN  2/15/06   PAGE    12
     UNTITLED.SC4                                                                                                                   
0                                                                                                            SUBCASE 1              
 
                                             D I S P L A C E M E N T   V E C T O R
 
      POINT ID.   TYPE          T1             T2             T3             R1             R2             R3
             1      G     -1.858583E-02   2.023040E-02   0.0            0.0            0.0            0.0
             2      G      0.0            0.0            0.0            0.0            0.0            0.0
             3      G      0.0            0.0            0.0            0.0            0.0            0.0
             4      G      0.0            0.0            0.0            0.0            0.0            0.0
1                                                                              JULY  15, 2010  MSC.NASTRAN  2/15/06   PAGE    13
     UNTITLED.SC4                                                                                                                   
0                                                                                                            SUBCASE 1              
 
                                                     L O A D   V E C T O R
 
      POINT ID.   TYPE          T1             T2             T3             R1             R2             R3
             1      G      1.000000E+06   2.000000E+06   0.0            0.0            0.0            0.0
1                                                                              JULY  15, 2010  MSC.NASTRAN  2/15/06   PAGE    14
     UNTITLED.SC4                                                                                                                   
0                                                                                                            SUBCASE 1              
 
                               F O R C E S   O F   S I N G L E - P O I N T   C O N S T R A I N T
 
      POINT ID.   TYPE          T1             T2             T3             R1             R2             R3
             2      G      1.813712E+05  -1.813712E+05   0.0            0.0            0.0            0.0
             3      G      0.0           -6.372576E+05   0.0            0.0            0.0            0.0
             4      G     -1.181371E+06  -1.181371E+06   0.0            0.0            0.0            0.0
1                                                                              JULY  15, 2010  MSC.NASTRAN  2/15/06   PAGE    15
                                                                                                                                    
0                                                                                                                                   
1                                                                              JULY  15, 2010  MSC.NASTRAN  2/15/06   PAGE    16
     UNTITLED.SC4                                                                                                                   
0                                                                                                            SUBCASE 1              
 
                                           F O R C E S   I N   R O D   E L E M E N T S     ( C R O D )
       ELEMENT           AXIAL                                     ELEMENT           AXIAL
         ID.             FORCE          TORQUE                       ID.             FORCE          TORQUE
             1       -2.564976E+05   0.0                                 2       -6.372576E+05   0.0
             3       -1.670711E+06   0.0
1                                                                              JULY  15, 2010  MSC.NASTRAN  2/15/06   PAGE    17
                                                                                                                                    
0                                                                                                                                   
1                                                                              JULY  15, 2010  MSC.NASTRAN  2/15/06   PAGE    18
     UNTITLED.SC4                                                                                                                   
0                                                                                                            SUBCASE 1              
 
                                     S T R E S S E S   I N   R O D   E L E M E N T S      ( C R O D )
       ELEMENT       AXIAL       SAFETY      TORSIONAL     SAFETY       ELEMENT       AXIAL       SAFETY      TORSIONAL     SAFETY
         ID.        STRESS       MARGIN        STRESS      MARGIN         ID.        STRESS       MARGIN        STRESS      MARGIN
             1   -1.358568E+04   4.7E-01    0.0                               2   -1.416128E+04   4.1E-01    0.0           
             3   -5.755993E+02   3.4E+01    0.0           
1                                                                              JULY  15, 2010  MSC.NASTRAN  2/15/06   PAGE    19
                                                                                                                                    
0                                                                                                                                   
1                                                                              JULY  15, 2010  MSC.NASTRAN  2/15/06   PAGE    20
                                                                                                                                    
0                                                                                                                                   
 * * * *  D B D I C T   P R I N T  * * * *      SUBDMAP = PRTSUM  ,  DMAP STATEMENT NO.     30



0                                   * * * *  A N A L Y S I S  S U M M A R Y  T A B L E  * * * *
0 SEID  PEID PROJ VERS APRCH      SEMG SEMR SEKR SELG SELR MODES DYNRED SOLLIN PVALID SOLNL LOOPID DESIGN CYCLE SENSITIVITY
 --------------------------------------------------------------------------------------------------------------------------
     0     0    1    1 '        '    T    T    T    T    T     F      F      T      0     F     -1            0           F
0SEID = SUPERELEMENT ID.
 PEID = PRIMARY SUPERELEMENT ID OF IMAGE SUPERELEMENT.
 PROJ = PROJECT ID NUMBER.
 VERS = VERSION ID.
 APRCH = BLANK FOR STRUCTURAL ANALYSIS.  HEAT FOR HEAT TRANSFER ANALYSIS.
 SEMG = STIFFNESS AND MASS MATRIX GENERATION STEP.
 SEMR = MASS MATRIX REDUCTION STEP (INCLUDES EIGENVALUE SOLUTION FOR MODES).
 SEKR = STIFFNESS MATRIX REDUCTION STEP.
 SELG = LOAD MATRIX GENERATION STEP.
 SELR = LOAD MATRIX REDUCTION STEP. 
 MODES = T (TRUE) IF NORMAL MODES OR BUCKLING MODES CALCULATED.
 DYNRED = T (TRUE) MEANS GENERALIZED DYNAMIC AND/OR COMPONENT MODE REDUCTION PERFORMED.
 SOLLIN = T (TRUE) IF LINEAR SOLUTION EXISTS IN DATABASE.
 PVALID = P-DISTRIBUTION ID OF P-VALUE FOR P-ELEMENTS
 LOOPID = THE LAST LOOPID VALUE USED IN THE NONLINEAR ANALYSIS.  USEFUL FOR RESTARTS.
 SOLNL = T (TRUE) IF NONLINEAR SOLUTION EXISTS IN DATABASE.
 DESIGN CYCLE = THE LAST DESIGN CYCLE (ONLY VALID IN OPTIMIZATION).
 SENSITIVITY = SENSITIVITY MATRIX GENERATION FLAG.
 
 No PARAM values were set in the Control File.
 
1                                        * * * END OF JOB * * *
 
 
1
 MACHINE                          MODEL                 OPERATING SYSTEM       MSC.Nastran       BUILD DATE         RUN DATE
     x86-64 Based Sys             AMD AuthenticAMD /10  Linux 2.6.18-194.3.1   VERSION 2005.5.0  FEB 15, 2006       JUL 15, 2010

 
                               ===    M S C . N a s t r a n           E X E C U T I O N   S U M M A R Y    ===

 Day_Time  Elapsed     I/O_Mb      Del_Mb     CPU_Sec    Del_CPU    Subroutine
 
 13:59:52     0:00        0.0         0.0         0.0        0.0    SEMTRN   BGN
 13:59:52     0:00        0.0         0.0         0.0        0.0    SEMTRN   END
 13:59:52     0:00        0.0         0.0         0.0        0.0    DBINIT   BGN
      ** CURRENT PROJECT ID = ' "BLANK" '  ** CURRENT VERSION ID =          1

     S U M M A R Y   O F   F I L E   A S S I G N M E N T   F O R   T H E   P R I M A R Y   D A T A B A S E     ( DBSNO   1, V2005.5 )

    ASSIGNED PHYSICAL FILE NAME (/ORIGINAL)      LOGICAL NAME     DBSET        STATUS    BUFFSIZE     CLUSTER SIZE      TIME STAMP
    ---------------------------------------      ------------     -----        ------    --------     ------------     ------------
    /tmp/tmpActj07/input.MASTER                  MASTER           MASTER       NEW           8193           1          100715135952
    /tmp/tmpActj07/input.DBALL                   DBALL            DBALL        NEW           8193           1          100715135953
    /tmp/input.T5361_51.OBJSCR                   OBJSCR           OBJSCR       NEW           8193           1          100715135954
               **** MEM FILE ****                * N/A *          SCRATCH 
    /tmp/input.T5361_51.SCRATCH                  SCRATCH          SCRATCH      NEW           8193           1          100715135955
    /tmp/input.T5361_51.SCR300                   SCR300           SCRATCH      NEW           8193           1          100715135956
 13:59:52     0:00        1.0         1.0         0.0        0.0    DBINIT   END
 13:59:52     0:00        1.0         0.0         0.0        0.0    XCSA     BGN

     S U M M A R Y   O F   F I L E   A S S I G N M E N T   F O R   T H E   D E L I V E R Y   D A T A B A S E   ( DBSNO   2, V2005.5 )

    ASSIGNED PHYSICAL FILE NAME (/ORIGINAL)      LOGICAL NAME     DBSET        STATUS    BUFFSIZE     CLUSTER SIZE      TIME STAMP
    ---------------------------------------      ------------     -----        ------    --------     ------------     ------------
    /msc/.../msc20055/linux8664/SSS.MASTERA      MASTERA          MASTER       OLD           8193           1          060215064506
   /./SSS.MASTERA                           
    /msc/.../msc20055/linux8664/SSS.MSCOBJ       MSCOBJ           MSCOBJ       OLD           8193           1          060215064511
   /./SSS.MSCOBJ                            
    /msc/.../msc20055/linux8664/SSS.MSCSOU       MSCSOU           MSCSOU       OLD           8193           1          060215064512
   /./SSS.MSCSOU                            
 13:59:52     0:00       53.0        52.0         0.3        0.3    XCSA     END
 13:59:52     0:00       53.0         0.0         0.3        0.0    CGPI     BGN
 13:59:52     0:00       53.0         0.0         0.3        0.0    CGPI     END
 13:59:52     0:00       53.0         0.0         0.3        0.0    LINKER   BGN
 13:59:52     0:00       77.0        24.0         0.4        0.1    LINKER   END

                    S U M M A R Y   O F   P H Y S I C A L   F I L E   I N F O R M A T I O N

    ASSIGNED PHYSICAL FILE NAME                                   RECL (BYTES)  MODE  FLAGS  WSIZE  (WNUM)
    ------------------------------------------------------------  ------------  ----  -----  -------------
    /tmp/input.T5361_51.SCRATCH                                          32768   R/W    L      N/A        
    /tmp/input.T5361_51.OBJSCR                                           32768   R/W    L      N/A        
    /tmp/tmpActj07/input.MASTER                                          32768   R/W    L      N/A        
    /tmp/tmpActj07/input.DBALL                                           32768   R/W    L      N/A        
    /tmp/input.T5361_51.SCR300                                           32768   R/W    L      N/A        
    /msc/nastran/msc20055/linux8664/SSS.MASTERA                          32768   R/O           N/A        
    /msc/nastran/msc20055/linux8664/SSS.MSCOBJ                           32768   R/O           N/A        

    FLAG VALUES ARE --
      A   ASYNCHRONOUS I/O USED TO PROCESS FILE
      B   BUFFERED I/O USED TO PROCESS FILE
      L   FILE HAS BEEN LOCKED
 
    ASSIGNED PHYSICAL FILE NAME                                   LOGICAL   UNIT  STATUS   ACCESS   RECL  FORM    FLAGS
    ------------------------------------------------------------  --------  ----  -------  ------  -----  ------  -----
    /tmp/tmpActj07/input.f04                                      LOGFL        4  NEW      SEQ      N/A   FMTD         
    /tmp/tmpActj07/input.f06                                      PRINT        6  NEW      SEQ      N/A   FMTD         
    /tmp/tmpActj07/input.plt                                      PLOT        14  NEW      SEQ      N/A   UNFMTD   Z   
    /tmp/tmpActj07/input.op2                                      OP2         12  NEW      SEQ      N/A   UNFMTD   Z   
    /tmp/tmpActj07/input                                          OUTPUT2F    19           SEQ      N/A   UNFMTD      P
    /tmp/tmpActj07/input.mnf                                      MNF             NEW      SEQ      N/A   UNFMTD       
    /tmp/tmpActj07/input.pch                                      PUNCH        7  NEW      SEQ      N/A   FMTD     Z   
    /tmp/tmpActj07/input.xdb                                      DBC         40  NEW      DIRECT   1024  UNFMTD       
    /tmp/tmpActj07/input.asm                                      ASM         16  NEW      SEQ      N/A   FMTD     Z   
    /tmp/tmpActj07/input.becho                                    BULKECHO    18  NEW      SEQ      N/A   FMTD     Z   
    /tmp/tmpActj07/input.des                                      TOPDES      21  NEW      SEQ      N/A   FMTD     Z   

    FLAG VALUES ARE --
      A   FILE HAS BEEN DEFINED BY AN 'ASSIGN' STATEMENT
      D   FILE IS TO BE DELETED BEFORE RUN, IF IT EXISTS
      N   'DEFER' SPECIFIED ON 'ASSIGN' STATEMENT
      P   PREFIX FILE NAME FOR OUTPUT2F FILE(S)
      R   FILE IS READ-ONLY
      T   FILE IS TEMPORARY AND WILL BE DELETED AT END OF RUN
      Z   FILE WILL BE DELETED AT END OF RUN IF ZERO-LENGTH

    ** THE NATIVE MODE FOR SEQUENTIAL UNFORMATTED FILES ON THIS PLATFORM IS LITTLE-ENDIAN (LTLEND)

    ** PHYSICAL FILES LARGER THAN 2GB ARE SUPPORTED ON THIS PLATFORM
 
0    ** MASTER DIRECTORIES ARE LOADED IN MEMORY.
        USER OPENCORE (HICORE)         =     6866871  WORDS
        EXECUTIVE SYSTEM WORK AREA     =      329621  WORDS
        MASTER(RAM)                    =       69305  WORDS
        SCRATCH(MEM) AREA              =      819300  WORDS (     100 BUFFERS)
        BUFFER POOL AREA (GINO/EXEC)   =      303511  WORDS (      37 BUFFERS)

        TOTAL MSC.NASTRAN MEMORY LIMIT =     8388608  WORDS


 Day_Time  Elapsed     I/O_Mb      Del_Mb     CPU_Sec    Del_CPU    SubDMAP Line (S)SubDMAP/Module
 
 13:59:52     0:00       78.0         1.0         0.4        0.0    XSEMDR   BGN
 13:59:52     0:00       79.0         1.0         0.4        0.0    SESTATIC24   (S)IFPL    BEGN *  
 13:59:52     0:00       79.0         0.0         0.4        0.0    IFPL    45      IFP1    BEGN    
 13:59:52     0:00       79.0         0.0         0.4        0.0    IFPL    88      XSORT   BEGN    
 13:59:52     0:00       79.0         0.0         0.4        0.0    IFPL    97      RMDUPBLKBEGN    
 13:59:52     0:00       79.0         0.0         0.4        0.0    IFPL    181  (S)IFPS    BEGN    
 13:59:52     0:00       79.0         0.0         0.4        0.0    IFPS    22      IFP     BEGN    
 13:59:52     0:00       79.0         0.0         0.4        0.0    IFP     
 *       COUNT:ENTRY          COUNT:ENTRY          COUNT:ENTRY          COUNT:ENTRY          COUNT:ENTRY          COUNT:ENTRY     *
 *           3:CROD               1:FORCE              4:GRID               1:LOAD               1:MAT1               4:PARAM     *
 *           3:PROD               4:SPC1               1:SPCADD  
 *    PARAM:  GRDPNT    K6ROT     POST      PRTMAXIM                                                                              *
 13:59:52     0:00       79.0         0.0         0.5        0.0    IFPS    88      PVT     BEGN    
 13:59:52     0:00       79.0         0.0         0.5        0.0    IFPS    103     MODGM2  BEGN    
 13:59:52     0:00       79.0         0.0         0.5        0.0    IFPS    145     GP1     BEGN    
 13:59:52     0:00       79.0         0.0         0.5        0.0    IFPS    195     DYNCXPNTBEGN    
 13:59:52     0:00       80.0         1.0         0.5        0.0    IFPS    265  (S)TESTBIT BEGN    
 13:59:52     0:00       80.0         0.0         0.5        0.0    IFPS    266  (S)TESTBIT BEGN    
 13:59:52     0:00       80.0         0.0         0.5        0.0    IFPS    267  (S)TESTBIT BEGN    
 13:59:52     0:00       82.0         2.0         0.5        0.0    IFPS    295     DBEQUIV BEGN *  
 13:59:52     0:00       83.0         1.0         0.5        0.0    IFPL    186     SEPR1   BEGN *  
 13:59:52     0:00       83.0         0.0         0.5        0.0    IFPL    187     DBDELETEBEGN    
 13:59:52     0:00       83.0         0.0         0.5        0.0    IFPL    196     PROJVER BEGN    
 13:59:52     0:00       83.0         0.0         0.5        0.0    IFPL    201     PVT     BEGN    
 13:59:52     0:00       83.0         0.0         0.5        0.0    IFPL    231     PVT     BEGN    
 13:59:52     0:00       83.0         0.0         0.5        0.0    IFPL    241  (S)IFPS1   BEGN    
 13:59:52     0:00       83.0         0.0         0.5        0.0    IFPS1   16      DTIIN   BEGN    
 13:59:52     0:00       83.0         0.0         0.5        0.0    IFPS1   48      PLTSET  BEGN    
 13:59:52     0:00       83.0         0.0         0.5        0.0    IFPS1   51      MSGHAN  BEGN    
 13:59:52     0:00       83.0         0.0         0.5        0.0    IFPS1   52      MSGHAN  BEGN    
 13:59:52     0:00       83.0         0.0         0.5        0.0    IFPS1   53      GP0     BEGN    
 13:59:52     0:00       83.0         0.0         0.5        0.0    IFPS1   54      MSGHAN  BEGN    
 13:59:52     0:00       83.0         0.0         0.5        0.0    IFPS1   95      DSGRDM  BEGN    
 13:59:52     0:00       84.0         1.0         0.5        0.0    IFPL    244  (S)TESTBIT BEGN *  
 13:59:52     0:00       84.0         0.0         0.5        0.0    IFPL    284     DTIIN   BEGN    
 13:59:52     0:00       84.0         0.0         0.5        0.0    SESTATIC50   (S)PHASE0  BEGN *  
 13:59:52     0:00       84.0         0.0         0.5        0.0    PHASE0  39      PVT     BEGN    
 13:59:52     0:00       84.0         0.0         0.5        0.0    PHASE0  41      PROJVER BEGN    
 13:59:52     0:00       84.0         0.0         0.5        0.0    PHASE0  44      DTIIN   BEGN    
 13:59:52     0:00       84.0         0.0         0.5        0.0    PHASE0  61   (S)TESTBIT BEGN    
 13:59:52     0:00       84.0         0.0         0.5        0.0    PHASE0  62   (S)TESTBIT BEGN    
 13:59:52     0:00       84.0         0.0         0.5        0.0    PHASE0  63   (S)TESTBIT BEGN    
 13:59:52     0:00       84.0         0.0         0.5        0.0    PHASE0  64   (S)TESTBIT BEGN    
 13:59:52     0:00       85.0         1.0         0.5        0.0    PHASE0  146     SEP1X   BEGN *  
 13:59:52     0:00       85.0         0.0         0.5        0.0    PHASE0  175     GP1     BEGN    
 13:59:52     0:00       86.0         1.0         0.5        0.0    PHASE0  180     GP2     BEGN    
 13:59:52     0:00       86.0         0.0         0.5        0.0    PHASE0  245     TA1     BEGN    
 13:59:52     0:00       86.0         0.0         0.5        0.0    PHASE0  246     TASNP2  BEGN    
 13:59:52     0:00       86.0         0.0         0.5        0.0    PHASE0  251     SEP1    BEGN    
 13:59:52     0:00       86.0         0.0         0.5        0.0    PHASE0  275     DBC     BEGN *  
 13:59:52     0:00       86.0         0.0         0.5        0.0    PHASE0  291     DBC     BEGN    
 13:59:52     0:00       86.0         0.0         0.5        0.0    PHASE0  330     TABPRT  BEGN    
 13:59:52     0:00       86.0         0.0         0.5        0.0    PHASE0  331     SEP3    BEGN    
 13:59:52     0:00       87.0         1.0         0.5        0.0    PHASE0  490     PVT     BEGN    
 13:59:52     0:00       89.0         2.0         0.5        0.0    PHASE0  559     PVT     BEGN *  
 13:59:52     0:00       89.0         0.0         0.5        0.0    PHASE0  561     PVT     BEGN    
 13:59:52     0:00       89.0         0.0         0.5        0.0    PHASE0  1136 (S)SETQ    BEGN    
 13:59:52     0:00       90.0         1.0         0.5        0.0    PHASE0  1255    MRGCSTM BEGN    
 13:59:52     0:00       91.0         1.0         0.5        0.0    PHASE0  1284    GP2     BEGN *  
 13:59:52     0:00       91.0         0.0         0.5        0.0    PHASE0  1314    GPJAC   BEGN    
 13:59:52     0:00       91.0         0.0         0.5        0.0    PHASE0  1346    GP3     BEGN    
 13:59:52     0:00       92.0         1.0         0.5        0.0    PHASE0  1349    LCGEN   BEGN    
 13:59:52     0:00       92.0         0.0         0.5        0.0    PHASE0  1355    VECPLOT BEGN *  
 13:59:52     0:00       92.0         0.0         0.5        0.0    PHASE0  1410    BCDR    BEGN    
 13:59:52     0:00       92.0         0.0         0.5        0.0    PHASE0  1415    CASE    BEGN    
 13:59:52     0:00       92.0         0.0         0.5        0.0    PHASE0  1417    PVT     BEGN    
 13:59:52     0:00       92.0         0.0         0.5        0.0    PHASE0  1476    GP4     BEGN    
 13:59:52     0:00       93.0         1.0         0.5        0.0    PHASE0  1553    MATGEN  BEGN    
 13:59:52     0:00       93.0         0.0         0.5        0.0    PHASE0  1554    APPEND  BEGN    
 13:59:52     0:00       93.0         0.0         0.5        0.0    PHASE0  1602    BCDR    BEGN    
 13:59:52     0:00       93.0         0.0         0.5        0.0    PHASE0  1632 (S)SELA1   BEGN    
 13:59:52     0:00       93.0         0.0         0.5        0.0    PHASE0  1634    UPARTN  BEGN    
 13:59:52     0:00       93.0         0.0         0.5        0.0    PHASE0  1749    DBC     BEGN *  
 13:59:52     0:00       94.0         1.0         0.6        0.0    SESTATIC53   (S)SETQ    BEGN    
 13:59:52     0:00       94.0         0.0         0.6        0.0    SESTATIC57      MATGEN  BEGN    
 13:59:52     0:00       94.0         0.0         0.6        0.0    SESTATIC58      RESTART BEGN    
 Data block TEMPALL  has changed.
 13:59:52     0:00       94.0         0.0         0.6        0.0    SESTATIC60      DTIIN   BEGN    
 13:59:52     0:00       94.0         0.0         0.6        0.0    SESTATIC95   (S)PHASE1DRBEGN    
 13:59:52     0:00       94.0         0.0         0.6        0.0    PHASE1DR110     PVT     BEGN    
 13:59:52     0:00       94.0         0.0         0.6        0.0    PHASE1DR199  (S)SETQ    BEGN    
 13:59:52     0:00       95.0         1.0         0.6        0.0    PHASE1DR215  (S)DBSETOFFBEGN    
 13:59:52     0:00       95.0         0.0         0.6        0.0    PHASE1DR217  (S)PHASE1A BEGN    
 13:59:52     0:00       95.0         0.0         0.6        0.0    PHASE1A 68      TA1     BEGN    
 13:59:52     0:00       96.0         1.0         0.6        0.0    PHASE1A 81      MSGHAN  BEGN *  
 13:59:52     0:00       96.0         0.0         0.6        0.0    PHASE1A 82   (S)SEMG    BEGN    
 13:59:52     0:00       96.0         0.0         0.6        0.0    SEMG    32      ELTPRT  BEGN    
 13:59:52     0:00       96.0         0.0         0.6        0.0    SEMG    38      EMG     BEGN    
 13:59:52     0:00       96.0         0.0         0.6        0.0    SEMG    156     EMA     BEGN    
 13:59:52     0:00       96.0         0.0         0.6        0.0    SEMG    168     EMA     BEGN    
 13:59:52     0:00       96.0         0.0         0.6        0.0    SEMG    174  (S)XMTRXIN BEGN    
 13:59:52     0:00       97.0         1.0         0.6        0.0    SEMG    191     MGEN    BEGN    
 13:59:52     0:00       97.0         0.0         0.6        0.0    SEMG    209  (S)SEMG1   BEGN    
 13:59:52     0:00       97.0         0.0         0.6        0.0    SEMG1   17      GPWG    BEGN    
 13:59:52     0:00       97.0         0.0         0.6        0.0    SEMG1   18      OFP     BEGN    
 13:59:52     0:00       98.0         1.0         0.6        0.0    SEMG    212     PROJVER BEGN *  
 13:59:52     0:00       98.0         0.0         0.6        0.0    PHASE1A 84      MSGHAN  BEGN    
 13:59:52     0:00       98.0         0.0         0.6        0.0    PHASE1A 85      MSGHAN  BEGN    
 13:59:52     0:00       98.0         0.0         0.6        0.0    PHASE1A 86   (S)SESUM   BEGN    
 13:59:52     0:00       99.0         1.0         0.6        0.0    PHASE1A 114     VECPLOT BEGN *  
 13:59:52     0:00       99.0         0.0         0.6        0.0    PHASE1A 162     MSGHAN  BEGN    
 13:59:52     0:00       99.0         0.0         0.6        0.0    PHASE1A 163  (S)SELG    BEGN    
 13:59:52     0:00       99.0         0.0         0.6        0.0    SELG    27      SSG1    BEGN    
 13:59:52     0:00      100.0         1.0         0.6        0.0    SELG    111     VECPLOT BEGN *  
 13:59:52     0:00      100.0         0.0         0.6        0.0    PHASE1A 164     MSGHAN  BEGN    
 13:59:52     0:00      100.0         0.0         0.6        0.0    PHASE1A 165  (S)SESUM   BEGN    
 13:59:52     0:00      100.0         0.0         0.6        0.0    PHASE1A 169  (S)SELA1   BEGN *  
 13:59:52     0:00      101.0         1.0         0.6        0.0    PHASE1A 170  (S)SELA1   BEGN *  
 13:59:52     0:00      101.0         0.0         0.6        0.0    PHASE1A 215  (S)SELA1   BEGN    
 13:59:52     0:00      101.0         0.0         0.6        0.0    PHASE1DR303     BCDR    BEGN    
 13:59:52     0:00      101.0         0.0         0.6        0.0    PHASE1DR309     PVT     BEGN    
 13:59:52     0:00      101.0         0.0         0.6        0.0    PHASE1DR338  (S)PHASE1B BEGN    
 13:59:52     0:00      102.0         1.0         0.6        0.0    PHASE1B 28   (S)SEKR0   BEGN    
 13:59:52     0:00      102.0         0.0         0.6        0.0    SEKR0   71      VECPLOT BEGN *  
 13:59:52     0:00      102.0         0.0         0.6        0.0    SEKR0   79      GPSP    BEGN *  
 13:59:52     0:00      103.0         1.0         0.6        0.0    PHASE1B 92   (S)SEKMR   BEGN    
 13:59:52     0:00      103.0         0.0         0.6        0.0    SEKMR   14   (S)PMLUSET BEGN    
 13:59:52     0:00      103.0         0.0         0.6        0.0    SEKMR   26   (S)SEKR    BEGN    
 13:59:52     0:00      103.0         0.0         0.6        0.0    SEKR    15   (S)PMLUSET BEGN    
 13:59:52     0:00      103.0         0.0         0.6        0.0    SEKR    18      UPARTN  BEGN *  
 13:59:52     0:00      104.0         1.0         0.6        0.0    SEKR    21      VECPLOT BEGN    
 13:59:52     0:00      104.0         0.0         0.6        0.0    SEKR    131  (S)SESUM   BEGN *  
 13:59:52     0:00      105.0         1.0         0.6        0.0    SEKMR   27   (S)SESUM   BEGN *  
 13:59:52     0:00      106.0         1.0         0.6        0.0    SEKMR   112  (S)SELA1   BEGN *  
 13:59:52     0:00      106.0         0.0         0.6        0.0    SEKMR   113  (S)SELA1   BEGN    
 13:59:52     0:00      106.0         0.0         0.6        0.0    SEKMR   114  (S)SELA1   BEGN    
 13:59:52     0:00      106.0         0.0         0.6        0.0    PHASE1B 93   (S)PMLUSET BEGN    
 13:59:52     0:00      106.0         0.0         0.6        0.0    PHASE1B 288  (S)SEGOA   BEGN    
 13:59:52     0:00      106.0         0.0         0.6        0.0    PHASE1B 291  (S)SELR    BEGN    
 13:59:52     0:00      108.0         2.0         0.6        0.0    SELR    99      SSG2    BEGN *  
 13:59:52     0:00      108.0         0.0         0.6        0.0    SELR    100     SSG2    BEGN *  
 13:59:52     0:00      109.0         1.0         0.6        0.0    PHASE1B 293  (S)SESUM   BEGN    
 13:59:52     0:00      110.0         1.0         0.6        0.0    PHASE1B 790  (S)SEGOA   BEGN *  
 13:59:52     0:00      110.0         0.0         0.7        0.0    PHASE1B 791     MATREDU BEGN    
 13:59:52     0:00      110.0         0.0         0.7        0.0    PHASE1B 798     TRNSP   BEGN    
 13:59:52     0:00      110.0         0.0         0.7        0.0    PHASE1B 799     ADD5    BEGN    
 13:59:52     0:00      110.0         0.0         0.7        0.0    PHASE1B 800     UPARTN  BEGN    
 13:59:52     0:00      111.0         1.0         0.7        0.0    PHASE1DR404     PVT     BEGN    
 13:59:52     0:00      111.0         0.0         0.7        0.0    PHASE1DR417  (S)PMLUSET BEGN    
 13:59:52     0:00      111.0         0.0         0.7        0.0    PHASE1DR420  (S)PHASE1C BEGN    
 13:59:52     0:00      111.0         0.0         0.7        0.0    PHASE1C 12   (S)SEKRRS  BEGN *  
 13:59:52     0:00      112.0         1.0         0.7        0.0    SEKRRS  63      DCMP    BEGN    
 *** USER INFORMATION MESSAGE 4157 (DFMSYN)
     PARAMETERS FOR SPARSE DECOMPOSITION OF DATA BLOCK  KLL     ( TYPE=RDP ) FOLLOW
                      MATRIX SIZE =       2 ROWS             NUMBER OF NONZEROES =         3 TERMS
           NUMBER OF ZERO COLUMNS =       0        NUMBER OF ZERO DIAGONAL TERMS =       0
                CPU TIME ESTIMATE =       0 SEC                I/O TIME ESTIMATE =       0 SEC
       MINIMUM MEMORY REQUIREMENT =      50 K WORDS             MEMORY AVAILABLE =    6856 K WORDS
     MEMORY REQR'D TO AVOID SPILL =      84 K WORDS         MEMORY USED BY BEND  =       1 K WORDS
     EST. INTEGER WORDS IN FACTOR =         1 K WORDS         EST. NONZERO TERMS =         1 K TERMS
     ESTIMATED MAXIMUM FRONT SIZE =       2 TERMS                 RANK OF UPDATE =       6
 *** USER INFORMATION MESSAGE 6439 (DFMSA)
     ACTUAL MEMORY AND DISK SPACE REQUIREMENTS FOR SPARSE SYM. DECOMPOSITION
         SPARSE DECOMP MEMORY USED =      84 K WORDS           MAXIMUM FRONT SIZE =       2 TERMS  
           INTEGER WORDS IN FACTOR =         1 K WORDS    NONZERO TERMS IN FACTOR =         1 K TERMS
    SPARSE DECOMP SUGGESTED MEMORY =      84 K WORDS
 13:59:52     0:00      112.0         0.0         0.7        0.0    PHASE1C 16   (S)SESUM   BEGN    
 13:59:52     0:00      112.0         0.0         0.7        0.0    PHASE1C 25   (S)SESUM   BEGN *  
 13:59:52     0:00      113.0         1.0         0.7        0.0    PHASE1C 29   (S)SELRRS  BEGN *  
 13:59:52     0:00      113.0         0.0         0.7        0.0    PHASE1C 30   (S)SESUM   BEGN    
 13:59:52     0:00      114.0         1.0         0.7        0.0    PHASE1DR424     BCDR    BEGN *  
 13:59:52     0:00      114.0         0.0         0.7        0.0    SESTATIC122     BCDR    BEGN    
 13:59:52     0:00      114.0         0.0         0.7        0.0    SESTATIC123     PVT     BEGN    
 13:59:52     0:00      114.0         0.0         0.7        0.0    SESTATIC132  (S)PMLUSET BEGN    
 13:59:52     0:00      114.0         0.0         0.7        0.0    SESTATIC161  (S)STATRS  BEGN    
 13:59:52     0:00      114.0         0.0         0.7        0.0    STATRS  115     MSGHAN  BEGN    
 13:59:52     0:00      114.0         0.0         0.7        0.0    STATRS  120     SSG3    BEGN    
 *** USER INFORMATION MESSAGE 4153 (DFNSB)
     FBS METHOD S2 TIME ESTIMATE TO FORM UL       - CPU=     0, I/O=     0, TOTAL=     0, PASSES=   1
 13:59:52     0:00      115.0         1.0         0.7        0.0    STATRS  144     MSGHAN  BEGN    
 13:59:52     0:00      115.0         0.0         0.7        0.0    SESTATIC264     PVT     BEGN *  
 13:59:52     0:00      115.0         0.0         0.7        0.0    SESTATIC265     APPEND  BEGN    
 13:59:52     0:00      115.0         0.0         0.7        0.0    SESTATIC266     PVT     BEGN    
 13:59:52     0:00      115.0         0.0         0.7        0.0    SESTATIC268     PVT     BEGN    
 13:59:52     0:00      115.0         0.0         0.7        0.0    SESTATIC282     COPY    BEGN    
 13:59:52     0:00      116.0         1.0         0.7        0.0    SESTATIC291     BCDR    BEGN    
 13:59:52     0:00      116.0         0.0         0.7        0.0    SESTATIC292  (S)SESUM   BEGN    
 13:59:52     0:00      116.0         0.0         0.7        0.0    SESTATIC306  (S)SUPER3  BEGN *  
 13:59:52     0:00      116.0         0.0         0.7        0.0    SUPER3  180     SEP4    BEGN    
 13:59:52     0:00      116.0         0.0         0.7        0.0    SUPER3  308     SEDRDR  BEGN    
 13:59:52     0:00      116.0         0.0         0.7        0.0                            
 13:59:52     0:00      116.0         0.0         0.7        0.0    SUPER3  325     PVT     BEGN    
 13:59:52     0:00      116.0         0.0         0.7        0.0    SUPER3  343     SEDR    BEGN    
 13:59:52     0:00      117.0         1.0         0.7        0.0    SUPER3  425     PVT     BEGN    
 13:59:52     0:00      117.0         0.0         0.7        0.0    SUPER3  464  (S)DBSETOFFBEGN    
 13:59:52     0:00      117.0         0.0         0.7        0.0    SUPER3  496     LCGEN   BEGN    
 13:59:52     0:00      117.0         0.0         0.7        0.0    SUPER3  541     DTIIN   BEGN    
 13:59:52     0:00      117.0         0.0         0.7        0.0    SUPER3  599  (S)SEDISP  BEGN    
 13:59:52     0:00      117.0         0.0         0.7        0.0    SEDISP  121     BCDR    BEGN    
 13:59:52     0:00      117.0         0.0         0.7        0.0    SEDISP  122     PVT     BEGN    
 13:59:52     0:00      118.0         1.0         0.7        0.0    SEDISP  291  (S)SEGOA   BEGN *  
 13:59:52     0:00      118.0         0.0         0.7        0.0    SEDISP  292     SDR1    BEGN    
 13:59:52     0:00      118.0         0.0         0.7        0.0    SEDISP  388     BCDR    BEGN    
 13:59:52     0:00      118.0         0.0         0.7        0.0    SEDISP  401     COPY    BEGN    
 13:59:52     0:00      118.0         0.0         0.7        0.0    SEDISP  417     COPY    BEGN    
 13:59:52     0:00      118.0         0.0         0.7        0.0    SEDISP  702  (S)SESUM   BEGN    
 13:59:52     0:00      119.0         1.0         0.7        0.0    SUPER3  600     PVT     BEGN *  
 13:59:52     0:00      119.0         0.0         0.7        0.0    SUPER3  1033    SDR2    BEGN *  
 13:59:52     0:00      120.0         1.0         0.7        0.0    SUPER3  1048    DBC     BEGN    
 13:59:52     0:00      120.0         0.0         0.7        0.0    SUPER3  1057    MODCASE BEGN    
 13:59:52     0:00      120.0         0.0         0.7        0.0    SUPER3  1078 (S)SEDRCVR BEGN    
 13:59:52     0:00      120.0         0.0         0.7        0.0    SEDRCVR 70      VECPLOT BEGN    
 13:59:52     0:00      120.0         0.0         0.7        0.0    SEDRCVR 80      VECPLOT BEGN    
 13:59:52     0:00      121.0         1.0         0.7        0.0    SEDRCVR 88      VECPLOT BEGN *  
 13:59:52     0:00      121.0         0.0         0.7        0.0    SEDRCVR 90      VECPLOT BEGN    
 13:59:52     0:00      121.0         0.0         0.7        0.0    SEDRCVR 222     SDR2    BEGN    
 13:59:52     0:00      121.0         0.0         0.7        0.0    SEDRCVR 288     SDRX    BEGN    
 13:59:52     0:00      121.0         0.0         0.7        0.0    SEDRCVR 663     OFP     BEGN    
 13:59:52     0:00      121.0         0.0         0.7        0.0    SEDRCVR 672     OFP     BEGN    
 13:59:52     0:00      121.0         0.0         0.7        0.0    SEDRCVR 674     OFP     BEGN    
 13:59:52     0:00      122.0         1.0         0.7        0.0    SEDRCVR 678     OFP     BEGN    
 13:59:52     0:00      122.0         0.0         0.7        0.0    SEDRCVR 679     OFP     BEGN    
 13:59:52     0:00      122.0         0.0         0.7        0.0    SEDRCVR 688     OFP     BEGN *  
 13:59:52     0:00      122.0         0.0         0.7        0.0    SEDRCVR 733     OFP     BEGN    
 13:59:52     0:00      122.0         0.0         0.7        0.0    SEDRCVR 775     DBC     BEGN    
 13:59:52     0:00      122.0         0.0         0.7        0.0    SEDRCVR 776     DBC     BEGN    
 13:59:52     0:00      122.0         0.0         0.7        0.0    SEDRCVR 777     DBC     BEGN    
 13:59:52     0:00      122.0         0.0         0.7        0.0    SEDRCVR 778     DBC     BEGN    
 13:59:52     0:00      122.0         0.0         0.7        0.0    SEDRCVR 780     DBC     BEGN    
 13:59:52     0:00      122.0         0.0         0.7        0.0    SEDRCVR 781     DBC     BEGN    
 13:59:52     0:00      123.0         1.0         0.7        0.0    SESTATIC352  (S)PRTSUM  BEGN *  
 13:59:52     0:00      123.0         0.0         0.7        0.0    PRTSUM  29      PROJVER BEGN    
 13:59:52     0:00      123.0         0.0         0.7        0.0    PRTSUM  30      DBDICT  BEGN    
 13:59:52     0:00      123.0         0.0         0.7        0.0    PRTSUM  31      PRTPARM BEGN    
 13:59:52     0:00      123.0         0.0         0.7        0.0    SESTATIC353     MSGHAN  BEGN    
 13:59:52     0:00      123.0         0.0         0.7        0.0    SESTATIC354     EXIT    BEGN    

 *** TOTAL MEMORY AND DISK USAGE STATISTICS ***

 +---------- SPARSE SOLUTION MODULES -----------+         +------------- MAXIMUM DISK USAGE -------------+
    HIWATER               SUB_DMAP        DMAP               HIWATER               SUB_DMAP        DMAP
    (WORDS)   DAY_TIME      NAME         MODULE                 (MB)   DAY_TIME      NAME         MODULE
    1616895   13:59:52    SEKRRS     63  DCMP                 12.781   13:59:52    SESTATIC  354  EXIT    


 *** DATABASE USAGE STATISTICS ***
 
 +---------------- LOGICAL DBSETS ----------------+   +------------------------------ DBSET FILES -----------------------------+
  DBSET     ALLOCATED  BLOCKSIZE       USED   USED     FILE      ALLOCATED  ALLOCATED    HIWATER       HIWATER  I/O TRANSFERRED
             (BLOCKS)    (WORDS)   (BLOCKS)      %                (BLOCKS)       (GB)   (BLOCKS)          (GB)             (GB)
 
  MASTER         5000       8192         71   1.42     MASTER         5000       0.15         71         0.002            0.069
  DBALL        250000       8192         89   0.04     DBALL        250000       7.63         89         0.003            0.021
  OBJSCR         5000       8192        247   4.94     OBJSCR         5000       0.15        247         0.008            0.014
  SCRATCH      500100       8192         12   0.00    (MEMFILE         100       0.00         40         0.001            0.000)
                                                       SCRATCH      250000       7.63          1         0.000            0.000
                                                       SCR300       250000       7.63          1         0.000            0.000
                                                                                                                 ==============
                                                                                                          TOTAL:          0.105
 
 *** BUFFER POOL AND SCRATCH 300 USAGE STATISTICS ***
 
 +----------------- BUFFER POOL -----------------+      +-------------------------- SCRATCH 300 --------------------------+ 
   OPTION        BLOCKS      BLOCKS      BLOCKS           OPTION    HIWATER               SUB_DMAP        DMAP     OPN/CLS
  SELECTED     ALLOCATED     REUSED     RELEASED         SELECTED  (BLOCKS)   DAY_TIME      NAME         MODULE    COUNTER
  GINO,EXEC          37        4832        1264              2           1    13:59:52    PREFACE     0  PREFACE       0


 *** SUMMARY OF PHYSICAL FILE I/O ACTIVITY ***

 ASSIGNED PHYSICAL FILE NAME                                   RECL (BYTES)  READ/WRITE COUNTS   WSIZE  (WNUM)   I/O COUNT 
 ------------------------------------------------------------  -----------  -------------------  -------------  -----------
 /tmp/input.T5361_51.SCRATCH                                         32768          0/1            N/A            N/A          
 /tmp/input.T5361_51.OBJSCR                                          32768        117/330          N/A            N/A          
 /tmp/tmpActj07/input.MASTER                                         32768         49/2225         N/A            N/A          
 /tmp/tmpActj07/input.DBALL                                          32768        196/507          N/A            N/A          
 /tmp/input.T5361_51.SCR300                                          32768          0/1            N/A            N/A          
 /msc/nastran/msc20055/linux8664/SSS.MASTERA                         32768         80/0            N/A            N/A          
 /msc/nastran/msc20055/linux8664/SSS.MSCOBJ                          32768        461/0            N/A            N/A          
 

 ASSIGNED PHYSICAL FILE NAME            FORM    RECL (BYTES) SIZE (BLOCKS) FLAGS   READ/WRITE COUNTS   WSIZE  (WNUM)   I/O COUNT 
 -------------------------------------  ------  -----------  ------------  -----  -------------------  -------------  -----------
 /tmp/tmpActj07/input.xdb               UNFMTD         4096            86    L           77/108          N/A            N/A          

    FLAG VALUES ARE --
      L   FILE HAS BEEN LOCKED
 
MSC.Nastran V2005.5 (AMD Linux 2.6.18-194.3.1.el5) Control File:
-----------------------------------------------------------------
NASTRAN OP2NEW=0 $ MSC.Nastran .lcl file
Nastran BUFFSIZE=8193 $(/msc/nastran/conf/nast20055rc[3])
JID=/tmp/tmpActj07/input.bdf
OUT=/tmp/tmpActj07/input
MEM=8388608
MACH='AMD'
OPER='Linux'
OSV='2.6.18-194.3.1.el5'
MODEL='AuthenticAMD /1000.000000MHz (chryse)'
CONFIG=8001
NPROC=4
symbol=DELDIR='/msc/nastran/msc20055/nast/del' $(program default)
symbol=DEMODIR='/msc/nastran/msc20055/nast/demo' $(program default)
symbol=SSSALTERDIR='/msc/nastran/msc20055/nast/sssalter' $(program default)
symbol=TPLDIR='/msc/nastran/msc20055/nast/tpl' $(program default)
SDIR=/tmp/input.T5361_51
DBS=/tmp/tmpActj07/input
SCR=no
NEWDEL=/msc/nastran/msc20055/linux8664/SSS
DEL=MSCDEF
AUTH=37070@gr2554852.grc.nasa.gov:1701@merry
AUTHQUE=20
MSGCAT=/msc/nastran/msc20055/linux8664/analysis.msg
MSGDEST='f06'
-----------------------------------------------------------------
MSC_ISHELLPATH=/tmp/tmpActj07
MSC_JIDPATH=
PATH=/msc/nastran/msc20055/linux8664:/ODIN_local_backup/home/amrodri3/mybranch/devenv/bin:/usr/kerberos/bin:/usr/local/bin:/bin:/usr/bin:/home/amrodri3/bin
LD_LIBRARY_PATH=/msc/nastran/msc20055/linux8664
Cmd Line:    /msc/nastran/msc20055/linux8664/nastran /tmp/tmpActj07/input.bdf batch=no out=/tmp/tmpActj07 dbs=/tmp/tmpActj07
Current Dir: /home/amrodri3/mybranch/openmdao.lib/src/openmdao/lib/components/nastran/test
Time Cmd:    time
Executable:  /msc/nastran/msc20055/linux8664/analysis
MSC_MSG:     stderr
-----------------------------------------------------------------
Current resource limits:
 CPU time:                       unlimited
 Virtual address space:          unlimited
 Working set size:               unlimited
 Data segment size:              unlimited
 Stack size:                     unlimited
 Number of open files:                1024 (hard limit: 1024)
 File size:                      unlimited
 Core dump file size:                    0 MB
-----------------------------------------------------------------

*** USER WARNING MESSAGE (pgm: nastran, fn: decode_keyword)
    ff_io=no     (/msc/nastran/conf/nast20055rc[5])

    This keyword is not available on this platform.
System configuration:
 Hostname:         chryse.grc.nasa.gov
 Architecture:     linux8664
 Platform:         AMD Linux 2.6.18-194.3.1.el5
 Model:            AuthenticAMD /1000.000000MHz
 CPU:              AuthenticAMD 
 Clock freq.:      1000 MHz
 Number of CPUs:   4
 Executable:       standard
 Raw model ID:     800
 Config number:    8001
 Physical memory:  24114 MB
 Virtual memory:   2047 MB
 Numeric format:   32-bit little-endian IEEE.
 Bytes per word:   4
 Disk block size:  512 bytes (128 words)
 Remote shell cmd: /msc/nastran/msc20055/linux8664/MSCRmtCmd (Windows, UNIX)
                   /usr/kerberos/bin/rsh (UNIX)
-----------------------------------------------------------------
MSC.Nastran started Thu Jul 15 13:59:51 EDT 2010
 13:59:51  Beginning Analysis
Process Id = 5388

 13:59:51  MSC Authorization Information - System Attributes (1004, 0)
 13:59:51  -----------------------------------------------------------
  Date:          Thu Jul 15 13:59:51 2010
  MSC Id:        0018fe26dd70 (ethernet)
  Hostname:      chryse.grc.nasa.gov
  Host Type:     Linux  Server List:   Host: gr2554852.grc.nasa.gov  Id: n/a  Comm: 0  Port: 37070
  License files: 37070@gr2554852.grc.nasa.gov
                 1701@merry
  User:          amrodri3
  Display:       /dev/pts/14

 13:59:52  MSC Authorization Information - Checkout Successful (1016, 0)
 13:59:52  -------------------------------------------------------------
 13:59:52  Acquired 250 licenses for Group CAMPUS (MSC.Nastran)

 13:59:52  Analysis started.
 13:59:52  Geometry access/verification to CAD part initiated (if needed).
 13:59:52  Geometry access/verification to CAD part successfully completed (if needed).
 13:59:52  Finite element model generation started.
BLAS/LAPACK shared object "MSCblaslib.so" has been loaded.
 13:59:52  Finite element model generated 24 degrees of freedom.
 13:59:52  Finite element model generation successfully completed.
 13:59:52  Application of Loads and Boundary Conditions to the finite element model started.
 13:59:52  Application of Loads and Boundary Conditions to the finite element model successfully completed.
 13:59:52  Solution of the system equations for linear statics started.
 13:59:52  Solution of the system equations for linear statics successfully completed.
 13:59:52  Linear static analysis completed.
 13:59:52  62 records read from JID file "/tmp/tmpActj07/input.bdf"
 13:59:52  NSEXIT: EXIT(0)
 13:59:52  Analysis complete  0
0.40user 0.40system 0:01.06elapsed 76%CPU (0avgtext+0avgdata 0maxresident)k
0inputs+0outputs (0major+6021minor)pagefaults 0swaps
-----------------------------------------------------------------
MSC.Nastran finished Thu Jul 15 13:59:52 EDT 2010
